# Solution for model GasLib-40
# Objective value = 2.6340159277911514e+01
loadshed[innode_1] 0
loadshed[innode_2] 0
loadshed[innode_3] 0
loadshed[innode_4] 0
loadshed[innode_5] 0
loadshed[innode_6] 0
loadshed[innode_7] 0
loadshed[innode_8] 0
loadshed[source_1] -1.9896217540426209e-01
loadshed[source_2] 1.6030555471415953e-01
loadshed[source_3] 2.0527128952465734e-01
loadshed[sink_1] 0
loadshed[sink_2] 0
loadshed[sink_3] 0
loadshed[sink_4] 0
loadshed[sink_5] 0
loadshed[sink_6] 0
loadshed[sink_7] 0
loadshed[sink_8] 0
loadshed[sink_9] 0
loadshed[sink_10] 0
loadshed[sink_11] 0
loadshed[sink_12] 1
loadshed[sink_13] 0
loadshed[sink_14] 0
loadshed[sink_15] 0
loadshed[sink_16] 0
loadshed[sink_17] 0
loadshed[sink_18] 0
loadshed[sink_19] 0
loadshed[sink_20] 0
loadshed[sink_21] 6.1060846540095870e-01
loadshed[sink_22] 0
loadshed[sink_23] 0
loadshed[sink_24] 0
loadshed[sink_25] 0
loadshed[sink_26] 0
loadshed[sink_27] 0
loadshed[sink_28] 0
loadshed[sink_29] 0
flow[source_1,sink_3] 1.8954426335470851e+02
flow[innode_1,sink_16] 1.6354166666666970e+01
flow[innode_6,sink_13] -1.1159715930355858e+01
flow[sink_13,sink_14] -2.7513882597022526e+01
flow[sink_14,sink_10] -4.3868049263689194e+01
flow[sink_25,sink_26] 1.4347556871361792e+02
flow[sink_26,sink_9] 8.1770833333333655e+01
flow[sink_9,sink_18] 6.5416666666666671e+01
flow[sink_26,sink_4] 4.5350568713617577e+01
flow[sink_4,sink_20] 2.8996402046950948e+01
flow[sink_18,sink_6] 4.9062500000000313e+01
flow[sink_25,innode_8] -1.5683593002137212e+02
flow[sink_6,sink_7] 0
flow[sink_6,sink_22] 3.2708333333333641e+01
flow[sink_7,sink_24] 2.2722340722088486e+01
flow[sink_22,sink_1] 1.6354166666666970e+01
flow[sink_24,sink_21] 6.3681740554218216e+00
flow[sink_21,sink_12] 0
flow[sink_7,sink_5] -3.9076507388755154e+01
flow[sink_5,sink_17] -5.5430674055421818e+01
flow[sink_17,sink_4] 0
flow[sink_17,sink_8] -7.1784840722088489e+01
flow[sink_3,sink_23] 16.3541666666697
flow[sink_8,sink_20] -8.8139007388755161e+01
flow[sink_25,sink_20] 7.5496772008470515e+01
flow[sink_25,sink_15] -6.7330861437027650e+01
flow[sink_15,sink_29] 0
flow[sink_29,sink_28] 1.6354166666667879e+01
flow[sink_29,sink_2] 100.039194770361
flow[sink_2,sink_15] 8.3685028103694322e+01
flow[sink_29,innode_7] -1.3274752810369554e+02
flow[innode_4,sink_19] 4.8970376263192612e+01
flow[sink_19,innode_3] 4.5349715781045305e+01
flow[innode_4,innode_5] 7.6668506333829441e+01
flow[sink_27,innode_5] -7.6668506333829441e+01
flow[sink_27,sink_19] 6.0314339667162777e+01
flow[sink_10,sink_11] 3.2708333333333641e+01
flow[sink_10,innode_2] -4.7580833482644195e+01
flow[sink_10,innode_3] -4.5349715781045305e+01
flow[innode_6,sink_25] 1.1159715930355858e+01
flow[sink_11,innode_1] 1.6354166666666970e+01
flow[sink_19,innode_2] 4.7580833482644195e+01
flow[source_3,innode_4] 1.2563888259702205e+02
flow[source_2,innode_7] 1.3274752810369554e+02
flow[sink_3,innode_8] 1.5683593002137212e+02
pressure[innode_1] 7.6362790407908491e+01
pressure[innode_2] 7.9029335280348178e+01
pressure[innode_3] 7.8928913470049281e+01
pressure[innode_4] 81.01325
pressure[innode_5] 8.0960513358600736e+01
pressure[innode_6] 7.4328834496951146e+01
pressure[innode_7] 81.01325
pressure[innode_8] 8.0379675936138327e+01
pressure[source_1] 81.01325
pressure[source_2] 81.01325
pressure[source_3] 81.01325
pressure[sink_1] 5.3551576617422896e+01
pressure[sink_2] 74.9286679564577
pressure[sink_3] 8.0379675936138327e+01
pressure[sink_4] 5.8457945772219027e+01
pressure[sink_5] 4.3350772514314066e+01
pressure[sink_6] 5.5652654227810274e+01
pressure[sink_7] 2.7099158670069954e+01
pressure[sink_8] 5.0188585599897635e+01
pressure[sink_9] 5.9329739031268559e+01
pressure[sink_10] 7.6514491715512037e+01
pressure[sink_11] 7.6362790407908491e+01
pressure[sink_12] 1.0132500000000031e+00
pressure[sink_13] 7.4390356145913415e+01
pressure[sink_14] 7.4439594582485370e+01
pressure[sink_15] 7.4655454783582258e+01
pressure[sink_16] 7.5341140573090811e+01
pressure[sink_17] 4.7479957067022951e+01
pressure[sink_18] 56.9627690560699
pressure[sink_19] 7.9029335280348178e+01
pressure[sink_20] 5.6330634892143628e+01
pressure[sink_21] 1.0132500000000031e+00
pressure[sink_22] 5.4615345759777910e+01
pressure[sink_23] 8.0214957924478540e+01
pressure[sink_24] 1.0837716109244582e+00
pressure[sink_25] 7.4328834496951146e+01
pressure[sink_26] 6.4223934450979911e+01
pressure[sink_27] 8.0324306424196919e+01
pressure[sink_28] 7.7167491387452841e+01
pressure[sink_29] 7.7462773661070017e+01
interdiction[source_1,sink_3] 0
interdiction[innode_1,sink_16] 0
interdiction[innode_6,sink_13] 0
interdiction[sink_13,sink_14] 0
interdiction[sink_14,sink_10] 0
interdiction[sink_25,sink_26] 0
interdiction[sink_26,sink_9] 0
interdiction[sink_9,sink_18] 0
interdiction[sink_26,sink_4] 0
interdiction[sink_4,sink_20] 0
interdiction[sink_18,sink_6] 0
interdiction[sink_25,innode_8] 0
interdiction[sink_6,sink_7] 1
interdiction[sink_6,sink_22] 0
interdiction[sink_7,sink_24] 0
interdiction[sink_22,sink_1] 0
interdiction[sink_24,sink_21] 0
interdiction[sink_21,sink_12] 0
interdiction[sink_7,sink_5] 0
interdiction[sink_5,sink_17] 0
interdiction[sink_17,sink_4] 1
interdiction[sink_17,sink_8] 0
interdiction[sink_3,sink_23] 0
interdiction[sink_8,sink_20] 0
interdiction[sink_25,sink_20] 0
interdiction[sink_25,sink_15] 0
interdiction[sink_15,sink_29] 1
interdiction[sink_29,sink_28] 0
interdiction[sink_29,sink_2] 0
interdiction[sink_2,sink_15] 0
interdiction[sink_29,innode_7] 0
interdiction[innode_4,sink_19] 0
interdiction[sink_19,innode_3] 0
interdiction[innode_4,innode_5] 0
interdiction[sink_27,innode_5] 0
interdiction[sink_27,sink_19] 0
interdiction[sink_10,sink_11] 0
interdiction[sink_10,innode_2] 0
interdiction[sink_10,innode_3] 0
interdiction[innode_6,sink_25] 0
interdiction[sink_11,innode_1] 0
interdiction[sink_19,innode_2] 0
interdiction[source_3,innode_4] 0
interdiction[source_2,innode_7] 0
interdiction[sink_3,innode_8] 0
WCcheckFlow[source_1,sink_3] 39
WCcheckFlow[innode_1,sink_16] 1
WCcheckFlow[innode_6,sink_13] 13
WCcheckFlow[sink_13,sink_14] 12
WCcheckFlow[sink_14,sink_10] 11
WCcheckFlow[sink_25,sink_26] 15
WCcheckFlow[sink_26,sink_9] 5
WCcheckFlow[sink_9,sink_18] 4
WCcheckFlow[sink_26,sink_4] 9
WCcheckFlow[sink_4,sink_20] 8
WCcheckFlow[sink_18,sink_6] 3
WCcheckFlow[sink_25,innode_8] -36
WCcheckFlow[sink_6,sink_7] 0
WCcheckFlow[sink_6,sink_22] 2
WCcheckFlow[sink_7,sink_24] 3
WCcheckFlow[sink_22,sink_1] 1
WCcheckFlow[sink_24,sink_21] 2
WCcheckFlow[sink_21,sink_12] 1
WCcheckFlow[sink_7,sink_5] -4
WCcheckFlow[sink_5,sink_17] -5
WCcheckFlow[sink_17,sink_4] 0
WCcheckFlow[sink_17,sink_8] -6
WCcheckFlow[sink_3,sink_23] 1
WCcheckFlow[sink_8,sink_20] -7
WCcheckFlow[sink_25,sink_20] 0
WCcheckFlow[sink_25,sink_15] 6
WCcheckFlow[sink_15,sink_29] 0
WCcheckFlow[sink_29,sink_28] 1
WCcheckFlow[sink_29,sink_2] -4
WCcheckFlow[sink_2,sink_15] -5
WCcheckFlow[sink_29,innode_7] 2
WCcheckFlow[innode_4,sink_19] -4
WCcheckFlow[sink_19,innode_3] -5
WCcheckFlow[innode_4,innode_5] 2
WCcheckFlow[sink_27,innode_5] -1
WCcheckFlow[sink_27,sink_19] 0
WCcheckFlow[sink_10,sink_11] 3
WCcheckFlow[sink_10,innode_2] 1
WCcheckFlow[sink_10,innode_3] 6
WCcheckFlow[innode_6,sink_25] -14
WCcheckFlow[sink_11,innode_1] 2
WCcheckFlow[sink_19,innode_2] 0
WCcheckFlow[source_3,innode_4] -1
WCcheckFlow[source_2,innode_7] -1
WCcheckFlow[sink_3,innode_8] 37
